(set-logic HORN)
(declare-fun assign_234_38_5_abs012 (Int Int Int Int Int Int Int Int Int) Bool)
(declare-fun assign_225_37_5_abs012 (Int Int Int Int Int Int Int Int Int) Bool)
(declare-fun assert_191_32_2_abs012 (Int Int Int Int Int Int Int Int Int) Bool)
(declare-fun assert_213_35_2_abs012 (Int Int Int Int Int Int Int Int Int) Bool)
(declare-fun if_216_31_5_abs012 (Int Int Int Int Int Int Int Int Int) Bool)
(declare-fun while_237_30_1_abs012 (Int Int Int Int Int Int Int Int Int) Bool)
(declare-fun assign_157_29_1_abs012 (Int Int Int Int Int Int Int Int Int) Bool)
(declare-fun assign_151_28_1_abs012 (Int Int Int Int Int Int Int Int Int) Bool)
(declare-fun assign_145_26_1_abs012 (Int Int Int Int Int Int Int Int Int) Bool)
(declare-fun assign_127_23_5_abs012 (Int Int Int Int Int Int Int Int Int) Bool)
(declare-fun arrayassign_118_22_5_abs012 (Int Int Int Int Int Int Int Int Int) Bool)
(declare-fun while_130_21_1_abs012 (Int Int Int Int Int Int Int Int Int) Bool)
(declare-fun assign_96_20_1_abs012 (Int Int Int Int Int Int Int Int Int) Bool)
(declare-fun assign_87_17_5_abs012 (Int Int Int Int Int Int Int Int Int) Bool)
(declare-fun arrayassign_78_16_5_abs012 (Int Int Int Int Int Int Int Int Int) Bool)
(declare-fun while_90_15_1_abs012 (Int Int Int Int Int Int Int Int Int) Bool)
(declare-fun assign_56_14_1_abs012 (Int Int Int Int Int Int Int Int Int) Bool)
(declare-fun assign_50_12_1_abs012 (Int Int Int Int Int Int Int Int Int) Bool)
(declare-fun end_abs012 (Int Int Int Int Int Int Int Int Int) Bool)
(declare-fun start_abs012 (Int Int Int Int Int Int Int Int Int) Bool)
(assert (forall ((modul Int) (size Int) (i Int) (vabs_f_f Int) (vabs_s_f_f Int) (vabs_s_s_f_f Int) (res_select Int) (b_select Int) (a_select Int)) (start_abs012 vabs_f_f res_select vabs_s_f_f b_select vabs_s_s_f_f a_select modul size i)))
(assert (forall ((i Int) (size Int) (modul Int) (vabs_0_f_f Int) (vabs_0_s_f_f Int) (vabs_0_s_s_f_f Int) (a_select Int) (b_select Int) (res_select Int)) (=> (start_abs012 vabs_0_f_f res_select vabs_0_s_f_f b_select vabs_0_s_s_f_f a_select modul size i) (assign_50_12_1_abs012 vabs_0_f_f res_select vabs_0_s_f_f b_select vabs_0_s_s_f_f a_select modul size i))))
(assert (forall ((rnd Int) (i Int) (size Int) (modul Int) (vabs_0_f_f Int) (vabs_0_s_f_f Int) (vabs_0_s_s_f_f Int) (a_select Int) (b_select Int) (res_select Int)) (=> (assign_50_12_1_abs012 vabs_0_f_f res_select vabs_0_s_f_f b_select vabs_0_s_s_f_f a_select modul size i) (assign_56_14_1_abs012 vabs_0_f_f res_select vabs_0_s_f_f b_select vabs_0_s_s_f_f a_select modul rnd i))))
(assert (forall ((i Int) (size Int) (modul Int) (vabs_0_f_f Int) (vabs_0_s_f_f Int) (vabs_0_s_s_f_f Int) (a_select Int) (b_select Int) (res_select Int)) (=> (assign_56_14_1_abs012 vabs_0_f_f res_select vabs_0_s_f_f b_select vabs_0_s_s_f_f a_select modul size i) (while_90_15_1_abs012 vabs_0_f_f res_select vabs_0_s_f_f b_select vabs_0_s_s_f_f a_select modul size 0))))
(assert (forall ((modul Int) (size Int) (i Int) (vabs_0_f_f Int) (vabs_0_s_f_f Int) (vabs_0_s_s_f_f Int) (res_select Int) (b_select Int) (a_select Int)) (=> (and (while_90_15_1_abs012 vabs_0_f_f res_select vabs_0_s_f_f b_select vabs_0_s_s_f_f a_select modul size i) (< i size)) (arrayassign_78_16_5_abs012 vabs_0_f_f res_select vabs_0_s_f_f b_select vabs_0_s_s_f_f a_select modul size i))))
(assert (forall ((modul Int) (size Int) (i Int) (vabs_0_f_f Int) (vabs_0_s_f_f Int) (vabs_0_s_s_f_f Int) (res_select Int) (b_select Int) (a_select Int)) (=> (and (while_90_15_1_abs012 vabs_0_f_f res_select vabs_0_s_f_f b_select vabs_0_s_s_f_f a_select modul size i) (not (< i size))) (assign_96_20_1_abs012 vabs_0_f_f res_select vabs_0_s_f_f b_select vabs_0_s_s_f_f a_select modul size i))))
(assert (forall ((i Int) (size Int) (modul Int) (vabs_0_f_f Int) (vabs_0_s_f_f Int) (vabs_0_s_s_f_f Int) (a_select_0 Int) (a_select Int) (b_select Int) (res_select Int)) (=> (and (=> (= i vabs_0_s_s_f_f) (= a_select a_select_0)) (arrayassign_78_16_5_abs012 vabs_0_f_f res_select vabs_0_s_f_f b_select vabs_0_s_s_f_f a_select modul size i) (arrayassign_78_16_5_abs012 vabs_0_f_f res_select vabs_0_s_f_f b_select i a_select_0 modul size i)) (assign_87_17_5_abs012 vabs_0_f_f (ite (= i vabs_0_f_f) a_select_0 res_select) vabs_0_s_f_f b_select vabs_0_s_s_f_f a_select modul size i))))
(assert (forall ((i Int) (size Int) (modul Int) (vabs_0_f_f Int) (vabs_0_s_f_f Int) (vabs_0_s_s_f_f Int) (a_select Int) (b_select Int) (res_select Int)) (=> (assign_87_17_5_abs012 vabs_0_f_f res_select vabs_0_s_f_f b_select vabs_0_s_s_f_f a_select modul size i) (while_90_15_1_abs012 vabs_0_f_f res_select vabs_0_s_f_f b_select vabs_0_s_s_f_f a_select modul size (+ i 2)))))
(assert (forall ((i Int) (size Int) (modul Int) (vabs_0_f_f Int) (vabs_0_s_f_f Int) (vabs_0_s_s_f_f Int) (a_select Int) (b_select Int) (res_select Int)) (=> (assign_96_20_1_abs012 vabs_0_f_f res_select vabs_0_s_f_f b_select vabs_0_s_s_f_f a_select modul size i) (while_130_21_1_abs012 vabs_0_f_f res_select vabs_0_s_f_f b_select vabs_0_s_s_f_f a_select modul size 1))))
(assert (forall ((modul Int) (size Int) (i Int) (vabs_0_f_f Int) (vabs_0_s_f_f Int) (vabs_0_s_s_f_f Int) (res_select Int) (b_select Int) (a_select Int)) (=> (and (while_130_21_1_abs012 vabs_0_f_f res_select vabs_0_s_f_f b_select vabs_0_s_s_f_f a_select modul size i) (< i size)) (arrayassign_118_22_5_abs012 vabs_0_f_f res_select vabs_0_s_f_f b_select vabs_0_s_s_f_f a_select modul size i))))
(assert (forall ((modul Int) (size Int) (i Int) (vabs_0_f_f Int) (vabs_0_s_f_f Int) (vabs_0_s_s_f_f Int) (res_select Int) (b_select Int) (a_select Int)) (=> (and (while_130_21_1_abs012 vabs_0_f_f res_select vabs_0_s_f_f b_select vabs_0_s_s_f_f a_select modul size i) (not (< i size))) (assign_145_26_1_abs012 vabs_0_f_f res_select vabs_0_s_f_f b_select vabs_0_s_s_f_f a_select modul size i))))
(assert (forall ((i Int) (size Int) (modul Int) (vabs_0_f_f Int) (vabs_0_s_f_f Int) (vabs_0_s_s_f_f Int) (a_select Int) (b_select_0 Int) (b_select Int) (res_select Int)) (=> (and (=> (= i vabs_0_s_f_f) (= b_select b_select_0)) (arrayassign_118_22_5_abs012 vabs_0_f_f res_select vabs_0_s_f_f b_select vabs_0_s_s_f_f a_select modul size i) (arrayassign_118_22_5_abs012 vabs_0_f_f res_select i b_select_0 vabs_0_s_s_f_f a_select modul size i)) (assign_127_23_5_abs012 vabs_0_f_f (ite (= i vabs_0_f_f) b_select_0 res_select) vabs_0_s_f_f b_select vabs_0_s_s_f_f a_select modul size i))))
(assert (forall ((i Int) (size Int) (modul Int) (vabs_0_f_f Int) (vabs_0_s_f_f Int) (vabs_0_s_s_f_f Int) (a_select Int) (b_select Int) (res_select Int)) (=> (assign_127_23_5_abs012 vabs_0_f_f res_select vabs_0_s_f_f b_select vabs_0_s_s_f_f a_select modul size i) (while_130_21_1_abs012 vabs_0_f_f res_select vabs_0_s_f_f b_select vabs_0_s_s_f_f a_select modul size (+ i 2)))))
(assert (forall ((rnd Int) (modul Int) (size Int) (i Int) (vabs_0_f_f Int) (vabs_0_s_f_f Int) (vabs_0_s_s_f_f Int) (res_select Int) (b_select Int) (a_select Int)) (=> (and (assign_145_26_1_abs012 vabs_0_f_f res_select vabs_0_s_f_f b_select vabs_0_s_s_f_f a_select modul size i) (>= rnd 0) (< rnd size)) (assign_151_28_1_abs012 vabs_0_f_f res_select vabs_0_s_f_f b_select vabs_0_s_s_f_f a_select modul size i))))
(assert (forall ((i Int) (size Int) (modul Int) (vabs_0_f_f Int) (vabs_0_s_f_f Int) (vabs_0_s_s_f_f Int) (a_select Int) (b_select Int) (res_select Int)) (=> (assign_151_28_1_abs012 vabs_0_f_f res_select vabs_0_s_f_f b_select vabs_0_s_s_f_f a_select modul size i) (assign_157_29_1_abs012 vabs_0_f_f res_select vabs_0_s_f_f b_select vabs_0_s_s_f_f a_select modul size 0))))
(assert (forall ((i Int) (size Int) (modul Int) (vabs_0_f_f Int) (vabs_0_s_f_f Int) (vabs_0_s_s_f_f Int) (a_select Int) (b_select Int) (res_select Int)) (=> (assign_157_29_1_abs012 vabs_0_f_f res_select vabs_0_s_f_f b_select vabs_0_s_s_f_f a_select modul size i) (while_237_30_1_abs012 vabs_0_f_f res_select vabs_0_s_f_f b_select vabs_0_s_s_f_f a_select 1 size i))))
(assert (forall ((modul Int) (size Int) (i Int) (vabs_0_f_f Int) (vabs_0_s_f_f Int) (vabs_0_s_s_f_f Int) (res_select Int) (b_select Int) (a_select Int)) (=> (and (while_237_30_1_abs012 vabs_0_f_f res_select vabs_0_s_f_f b_select vabs_0_s_s_f_f a_select modul size i) (< i size)) (if_216_31_5_abs012 vabs_0_f_f res_select vabs_0_s_f_f b_select vabs_0_s_s_f_f a_select modul size i))))
(assert (forall ((modul Int) (size Int) (i Int) (vabs_0_f_f Int) (vabs_0_s_f_f Int) (vabs_0_s_s_f_f Int) (res_select Int) (b_select Int) (a_select Int)) (=> (and (while_237_30_1_abs012 vabs_0_f_f res_select vabs_0_s_f_f b_select vabs_0_s_s_f_f a_select modul size i) (not (< i size))) (end_abs012 vabs_0_f_f res_select vabs_0_s_f_f b_select vabs_0_s_s_f_f a_select modul size i))))
(assert (forall ((size Int) (i Int) (vabs_0_f_f Int) (vabs_0_s_f_f Int) (vabs_0_s_s_f_f Int) (res_select Int) (b_select Int) (a_select Int)) (=> (if_216_31_5_abs012 vabs_0_f_f res_select vabs_0_s_f_f b_select vabs_0_s_s_f_f a_select 0 size i) (assert_191_32_2_abs012 vabs_0_f_f res_select vabs_0_s_f_f b_select vabs_0_s_s_f_f a_select 0 size i))))
(assert (forall ((modul Int) (size Int) (i Int) (vabs_0_f_f Int) (vabs_0_s_f_f Int) (vabs_0_s_s_f_f Int) (res_select Int) (b_select Int) (a_select Int)) (=> (and (if_216_31_5_abs012 vabs_0_f_f res_select vabs_0_s_f_f b_select vabs_0_s_s_f_f a_select modul size i) (not (= modul 0))) (assert_213_35_2_abs012 vabs_0_f_f res_select vabs_0_s_f_f b_select vabs_0_s_s_f_f a_select modul size i))))
(assert (forall ((i Int) (size Int) (modul Int) (a_select Int) (b_select Int) (res_select Int)) (=> (assert_191_32_2_abs012 i res_select 0 b_select i a_select modul size i) (= res_select a_select))))
(assert (forall ((i Int) (size Int) (modul Int) (vabs_0_f_f Int) (vabs_0_s_f_f Int) (vabs_0_s_s_f_f Int) (a_select Int) (b_select Int) (res_select Int)) (=> (assert_191_32_2_abs012 vabs_0_f_f res_select vabs_0_s_f_f b_select vabs_0_s_s_f_f a_select modul size i) (assign_225_37_5_abs012 vabs_0_f_f res_select vabs_0_s_f_f b_select vabs_0_s_s_f_f a_select modul size i))))
(assert (forall ((i Int) (size Int) (modul Int) (a_select Int) (b_select Int) (res_select Int)) (=> (assert_213_35_2_abs012 i res_select i b_select 0 a_select modul size i) (= res_select b_select))))
(assert (forall ((i Int) (size Int) (modul Int) (vabs_0_f_f Int) (vabs_0_s_f_f Int) (vabs_0_s_s_f_f Int) (a_select Int) (b_select Int) (res_select Int)) (=> (assert_213_35_2_abs012 vabs_0_f_f res_select vabs_0_s_f_f b_select vabs_0_s_s_f_f a_select modul size i) (assign_225_37_5_abs012 vabs_0_f_f res_select vabs_0_s_f_f b_select vabs_0_s_s_f_f a_select modul size i))))
(assert (forall ((i Int) (size Int) (modul Int) (vabs_0_f_f Int) (vabs_0_s_f_f Int) (vabs_0_s_s_f_f Int) (a_select Int) (b_select Int) (res_select Int)) (=> (assign_225_37_5_abs012 vabs_0_f_f res_select vabs_0_s_f_f b_select vabs_0_s_s_f_f a_select modul size i) (assign_234_38_5_abs012 vabs_0_f_f res_select vabs_0_s_f_f b_select vabs_0_s_s_f_f a_select (- 1 modul) size i))))
(assert (forall ((i Int) (size Int) (modul Int) (vabs_0_f_f Int) (vabs_0_s_f_f Int) (vabs_0_s_s_f_f Int) (a_select Int) (b_select Int) (res_select Int)) (=> (assign_234_38_5_abs012 vabs_0_f_f res_select vabs_0_s_f_f b_select vabs_0_s_s_f_f a_select modul size i) (while_237_30_1_abs012 vabs_0_f_f res_select vabs_0_s_f_f b_select vabs_0_s_s_f_f a_select modul size (+ i 1)))))
(check-sat)